(set-option :auto_config false)
(set-option :smt.mbqi false)
(set-option :smt.case_split 3)
(set-option :smt.qi.eager_threshold 100.0)
(set-option :smt.delay_units true)
(set-option :smt.arith.solver 2)
(set-option :smt.arith.nl false)
(set-info :comment ";; Prelude")
(set-info :comment ";; AIR prelude")
(declare-sort %%Function%% 0)
(declare-sort FuelId 0)
(declare-sort Fuel 0)
(declare-const zero Fuel)
(declare-fun succ (Fuel) Fuel)
(declare-fun fuel_bool (FuelId) Bool)
(declare-fun fuel_bool_default (FuelId) Bool)
(declare-const fuel_defaults Bool)
(assert (=> fuel_defaults (forall ((id FuelId)) (! (= (fuel_bool id) (fuel_bool_default id)) :pattern ((fuel_bool id)) :qid prelude_fuel_defaults :skolemid skolem_prelude_fuel_defaults))))
(declare-sort Char 0)
(declare-fun char%from_unicode (Int) Char)
(declare-fun char%to_unicode (Char) Int)
(declare-sort StrSlice 0)
(declare-fun str%strslice_is_ascii (StrSlice) Bool)
(declare-fun str%strslice_len (StrSlice) Int)
(declare-fun str%strslice_get_char (StrSlice Int) Char)
(declare-fun str%new_strlit (Int) StrSlice)
(declare-fun str%from_strlit (StrSlice) Int)
(declare-sort Poly 0)
(declare-sort Height 0)
(declare-fun I (Int) Poly)
(declare-fun B (Bool) Poly)
(declare-fun %I (Poly) Int)
(declare-fun %B (Poly) Bool)
(declare-fun S (StrSlice) Poly)
(declare-fun %S (Poly) StrSlice)
(declare-fun C (Char) Poly)
(declare-fun %C (Poly) Char)
(declare-sort Type 0)
(declare-const BOOL Type)
(declare-const INT Type)
(declare-const NAT Type)
(declare-const STRSLICE Type)
(declare-const CHAR Type)
(declare-fun UINT (Int) Type)
(declare-fun SINT (Int) Type)
(declare-fun CONST_INT (Int) Type)
(declare-sort Dcr 0)
(declare-const $ Dcr)
(declare-fun REF (Dcr) Dcr)
(declare-fun MUT_REF (Dcr) Dcr)
(declare-fun BOX (Dcr) Dcr)
(declare-fun RC (Dcr) Dcr)
(declare-fun ARC (Dcr) Dcr)
(declare-fun GHOST (Dcr) Dcr)
(declare-fun TRACKED (Dcr) Dcr)
(declare-fun NEVER (Dcr) Dcr)
(declare-fun ARRAY (Dcr Type Dcr Type) Type)
(declare-fun SLICE (Dcr Type) Type)
(declare-fun has_type (Poly Type) Bool)
(declare-fun as_type (Poly Type) Poly)
(declare-fun mk_fun (%%Function%%) %%Function%%)
(declare-fun const_int (Type) Int)
(assert (forall ((i Int)) (! (= i (const_int (CONST_INT i))) :pattern ((CONST_INT i)) :qid prelude_type_id_const_int :skolemid skolem_prelude_type_id_const_int)))
(assert (forall ((b Bool)) (! (has_type (B b) BOOL) :pattern ((has_type (B b) BOOL)) :qid prelude_has_type_bool :skolemid skolem_prelude_has_type_bool)))
(assert (forall ((x Poly) (t Type)) (! (and (has_type (as_type x t) t) (=> (has_type x t) (= x (as_type x t)))) :pattern ((as_type x t)) :qid prelude_as_type :skolemid skolem_prelude_as_type)))
(assert (forall ((x %%Function%%)) (! (= (mk_fun x) x) :pattern ((mk_fun x)) :qid prelude_mk_fun :skolemid skolem_prelude_mk_fun)))
(assert (forall ((x Bool)) (! (= x (%B (B x))) :pattern ((B x)) :qid prelude_unbox_box_bool :skolemid skolem_prelude_unbox_box_bool)))
(assert (forall ((x Int)) (! (= x (%I (I x))) :pattern ((I x)) :qid prelude_unbox_box_int :skolemid skolem_prelude_unbox_box_int)))
(assert (forall ((x Poly)) (! (=> (has_type x BOOL) (= x (B (%B x)))) :pattern ((has_type x BOOL)) :qid prelude_box_unbox_bool :skolemid skolem_prelude_box_unbox_bool)))
(assert (forall ((x Poly)) (! (=> (has_type x INT) (= x (I (%I x)))) :pattern ((has_type x INT)) :qid prelude_box_unbox_int :skolemid skolem_prelude_box_unbox_int)))
(assert (forall ((x Poly)) (! (=> (has_type x NAT) (= x (I (%I x)))) :pattern ((has_type x NAT)) :qid prelude_box_unbox_nat :skolemid skolem_prelude_box_unbox_nat)))
(assert (forall ((bits Int) (x Poly)) (! (=> (has_type x (UINT bits)) (= x (I (%I x)))) :pattern ((has_type x (UINT bits))) :qid prelude_box_unbox_uint :skolemid skolem_prelude_box_unbox_uint)))
(assert (forall ((bits Int) (x Poly)) (! (=> (has_type x (SINT bits)) (= x (I (%I x)))) :pattern ((has_type x (SINT bits))) :qid prelude_box_unbox_sint :skolemid skolem_prelude_box_unbox_sint)))
(assert (forall ((x Int)) (! (= (str%from_strlit (str%new_strlit x)) x) :pattern ((str%new_strlit x)) :qid prelude_strlit_injective :skolemid skolem_prelude_strlit_injective)))
(assert (forall ((x Poly)) (! (=> (has_type x STRSLICE) (= x (S (%S x)))) :pattern ((has_type x STRSLICE)) :qid prelude_box_unbox_strslice :skolemid skolem_prelude_box_unbox_strslice)))
(assert (forall ((x StrSlice)) (! (= x (%S (S x))) :pattern ((S x)) :qid prelude_unbox_box_strslice :skolemid skolem_prelude_unbox_box_strslice)))
(assert (forall ((x StrSlice)) (! (has_type (S x) STRSLICE) :pattern ((has_type (S x) STRSLICE)) :qid prelude_has_type_strslice :skolemid skolem_prelude_has_type_strslice)))
(declare-fun ext_eq (Bool Type Poly Poly) Bool)
(assert (forall ((deep Bool) (t Type) (x Poly) (y Poly)) (! (= (= x y) (ext_eq deep t x y)) :pattern ((ext_eq deep t x y)) :qid prelude_ext_eq :skolemid skolem_prelude_ext_eq)))
(declare-const SZ Int)
(assert (or (= SZ 32) (= SZ 64)))
(declare-fun uHi (Int) Int)
(declare-fun iLo (Int) Int)
(declare-fun iHi (Int) Int)
(assert (= (uHi 8) 256))
(assert (= (uHi 16) 65536))
(assert (= (uHi 32) 4294967296))
(assert (= (uHi 64) 18446744073709551616))
(assert (= (uHi 128) (+ 1 340282366920938463463374607431768211455)))
(assert (= (iLo 8) (- 128)))
(assert (= (iLo 16) (- 32768)))
(assert (= (iLo 32) (- 2147483648)))
(assert (= (iLo 64) (- 9223372036854775808)))
(assert (= (iLo 128) (- 170141183460469231731687303715884105728)))
(assert (= (iHi 8) 128))
(assert (= (iHi 16) 32768))
(assert (= (iHi 32) 2147483648))
(assert (= (iHi 64) 9223372036854775808))
(assert (= (iHi 128) 170141183460469231731687303715884105728))
(declare-fun nClip (Int) Int)
(declare-fun uClip (Int Int) Int)
(declare-fun iClip (Int Int) Int)
(assert (forall ((i Int)) (! (and (<= 0 (nClip i)) (=> (<= 0 i) (= i (nClip i)))) :pattern ((nClip i)) :qid prelude_nat_clip :skolemid skolem_prelude_nat_clip)))
(assert (forall ((bits Int) (i Int)) (! (and (<= 0 (uClip bits i)) (< (uClip bits i) (uHi bits)) (=> (and (<= 0 i) (< i (uHi bits))) (= i (uClip bits i)))) :pattern ((uClip bits i)) :qid prelude_u_clip :skolemid skolem_prelude_u_clip)))
(assert (forall ((bits Int) (i Int)) (! (and (<= (iLo bits) (iClip bits i)) (< (iClip bits i) (iHi bits)) (=> (and (<= (iLo bits) i) (< i (iHi bits))) (= i (iClip bits i)))) :pattern ((iClip bits i)) :qid prelude_i_clip :skolemid skolem_prelude_i_clip)))
(declare-fun uInv (Int Int) Bool)
(declare-fun iInv (Int Int) Bool)
(assert (forall ((bits Int) (i Int)) (! (= (uInv bits i) (and (<= 0 i) (< i (uHi bits)))) :pattern ((uInv bits i)) :qid prelude_u_inv :skolemid skolem_prelude_u_inv)))
(assert (forall ((bits Int) (i Int)) (! (= (iInv bits i) (and (<= (iLo bits) i) (< i (iHi bits)))) :pattern ((iInv bits i)) :qid prelude_i_inv :skolemid skolem_prelude_i_inv)))
(assert (forall ((x Int)) (! (has_type (I x) INT) :pattern ((has_type (I x) INT)) :qid prelude_has_type_int :skolemid skolem_prelude_has_type_int)))
(assert (forall ((x Int)) (! (=> (<= 0 x) (has_type (I x) NAT)) :pattern ((has_type (I x) NAT)) :qid prelude_has_type_nat :skolemid skolem_prelude_has_type_nat)))
(assert (forall ((bits Int) (x Int)) (! (=> (uInv bits x) (has_type (I x) (UINT bits))) :pattern ((has_type (I x) (UINT bits))) :qid prelude_has_type_uint :skolemid skolem_prelude_has_type_uint)))
(assert (forall ((bits Int) (x Int)) (! (=> (iInv bits x) (has_type (I x) (SINT bits))) :pattern ((has_type (I x) (SINT bits))) :qid prelude_has_type_sint :skolemid skolem_prelude_has_type_sint)))
(assert (forall ((x Poly)) (! (=> (has_type x NAT) (<= 0 (%I x))) :pattern ((has_type x NAT)) :qid prelude_unbox_int :skolemid skolem_prelude_unbox_int)))
(assert (forall ((bits Int) (x Poly)) (! (=> (has_type x (UINT bits)) (uInv bits (%I x))) :pattern ((has_type x (UINT bits))) :qid prelude_unbox_uint :skolemid skolem_prelude_unbox_uint)))
(assert (forall ((bits Int) (x Poly)) (! (=> (has_type x (SINT bits)) (iInv bits (%I x))) :pattern ((has_type x (SINT bits))) :qid prelude_unbox_sint :skolemid skolem_prelude_unbox_sint)))
(declare-fun Add (Int Int) Int)
(declare-fun Sub (Int Int) Int)
(declare-fun Mul (Int Int) Int)
(declare-fun EucDiv (Int Int) Int)
(declare-fun EucMod (Int Int) Int)
(assert (forall ((x Int) (y Int)) (! (= (Add x y) (+ x y)) :pattern ((Add x y)) :qid prelude_add :skolemid skolem_prelude_add)))
(assert (forall ((x Int) (y Int)) (! (= (Sub x y) (- x y)) :pattern ((Sub x y)) :qid prelude_sub :skolemid skolem_prelude_sub)))
(assert (forall ((x Int) (y Int)) (! (= (Mul x y) (* x y)) :pattern ((Mul x y)) :qid prelude_mul :skolemid skolem_prelude_mul)))
(assert (forall ((x Int) (y Int)) (! (= (EucDiv x y) (div x y)) :pattern ((EucDiv x y)) :qid prelude_eucdiv :skolemid skolem_prelude_eucdiv)))
(assert (forall ((x Int) (y Int)) (! (= (EucMod x y) (mod x y)) :pattern ((EucMod x y)) :qid prelude_eucmod :skolemid skolem_prelude_eucmod)))
(assert (forall ((x Int) (y Int)) (! (=> (and (<= 0 x) (<= 0 y)) (<= 0 (Mul x y))) :pattern ((Mul x y)) :qid prelude_mul_nats :skolemid skolem_prelude_mul_nats)))
(assert (forall ((x Int) (y Int)) (! (=> (and (<= 0 x) (< 0 y)) (and (<= 0 (EucDiv x y)) (<= (EucDiv x y) x))) :pattern ((EucDiv x y)) :qid prelude_div_unsigned_in_bounds :skolemid skolem_prelude_div_unsigned_in_bounds)))
(assert (forall ((x Int) (y Int)) (! (=> (and (<= 0 x) (< 0 y)) (and (<= 0 (EucMod x y)) (< (EucMod x y) y))) :pattern ((EucMod x y)) :qid prelude_mod_unsigned_in_bounds :skolemid skolem_prelude_mod_unsigned_in_bounds)))
(assert (forall ((x Poly)) (! (=> (has_type x CHAR) (= x (C (%C x)))) :pattern ((has_type x CHAR)) :qid prelude_box_unbox_char :skolemid skolem_prelude_box_unbox_char)))
(assert (forall ((x Char)) (! (= x (%C (C x))) :pattern ((C x)) :qid prelude_unbox_box_char :skolemid skolem_prelude_unbox_box_char)))
(assert (forall ((x Char)) (! (has_type (C x) CHAR) :pattern ((has_type (C x) CHAR)) :qid prelude_has_type_char :skolemid skolem_prelude_has_type_char)))
(assert (forall ((x Int)) (! (=> (and (<= 0 x) (< x (uHi 32))) (= x (char%to_unicode (char%from_unicode x)))) :pattern ((char%from_unicode x)) :qid prelude_char_injective :skolemid skolem_prelude_char_injective)))
(assert (forall ((c Char)) (! (and (<= 0 (char%to_unicode c)) (< (char%to_unicode c) (uHi 32))) :pattern ((char%to_unicode c)) :qid prelude_to_unicode_bounds :skolemid skolem_prelude_to_unicode_bounds)))
(declare-fun height (Poly) Height)
(declare-fun height_lt (Height Height) Bool)
(assert (forall ((x Height) (y Height)) (! (= (height_lt x y) (and ((_ partial-order 0) x y) (not (= x y)))) :pattern ((height_lt x y)) :qid prelude_height_lt :skolemid skolem_prelude_height_lt)))
(declare-fun fun_from_recursive_field (Poly) Poly)
(declare-fun check_decrease_int (Int Int Bool) Bool)
(assert (forall ((cur Int) (prev Int) (otherwise Bool)) (! (= (check_decrease_int cur prev otherwise) (or (and (<= 0 cur) (< cur prev)) (and (= cur prev) otherwise))) :pattern ((check_decrease_int cur prev otherwise)) :qid prelude_check_decrease_int :skolemid skolem_prelude_check_decrease_int)))
(declare-fun check_decrease_height (Poly Poly Bool) Bool)
(assert (forall ((cur Poly) (prev Poly) (otherwise Bool)) (! (= (check_decrease_height cur prev otherwise) (or (height_lt (height cur) (height prev)) (and (= (height cur) (height prev)) otherwise))) :pattern ((check_decrease_height cur prev otherwise)) :qid prelude_check_decrease_height :skolemid skolem_prelude_check_decrease_height)))
(declare-fun uintxor (Int Poly Poly) Int)
(declare-fun uintand (Int Poly Poly) Int)
(declare-fun uintor (Int Poly Poly) Int)
(declare-fun uintshr (Int Poly Poly) Int)
(declare-fun uintshl (Int Poly Poly) Int)
(declare-fun uintnot (Int Poly) Int)
(declare-fun singular_mod (Int Int) Int)
(assert (forall ((x Int) (y Int)) (! (=> (not (= y 0)) (= (EucMod x y) (singular_mod x y))) :pattern ((singular_mod x y)) :qid prelude_singularmod :skolemid skolem_prelude_singularmod)))
(declare-fun closure_req (Type Dcr Type Poly Poly) Bool)
(declare-fun closure_ens (Type Dcr Type Poly Poly Poly) Bool)
(set-info :comment ";; MODULE 'root module'")
(set-info :comment ";; Fuel")
(assert true)
(set-info :comment ";; Datatypes")
(declare-datatypes ((tuple%0. 0)) (((tuple%0./tuple%0 ))))
(declare-const TYPE%tuple%0. Type)
(declare-fun Poly%tuple%0. (tuple%0.) Poly)
(declare-fun %Poly%tuple%0. (Poly) tuple%0.)
(assert (forall ((x@ tuple%0.)) (! (= x@ (%Poly%tuple%0. (Poly%tuple%0. x@))) :pattern ((Poly%tuple%0. x@)) :qid internal_crate__tuple__0_box_axiom_definition :skolemid skolem_internal_crate__tuple__0_box_axiom_definition)))
(assert (forall ((x@ Poly)) (! (=> (has_type x@ TYPE%tuple%0.) (= x@ (Poly%tuple%0. (%Poly%tuple%0. x@)))) :pattern ((has_type x@ TYPE%tuple%0.)) :qid internal_crate__tuple__0_unbox_axiom_definition :skolemid skolem_internal_crate__tuple__0_unbox_axiom_definition)))
(assert (forall ((x@ tuple%0.)) (! (has_type (Poly%tuple%0. x@) TYPE%tuple%0.) :pattern ((has_type (Poly%tuple%0. x@) TYPE%tuple%0.)) :qid internal_crate__tuple__0_has_type_always_definition :skolemid skolem_internal_crate__tuple__0_has_type_always_definition)))
(set-info :comment ";; Function-Specs main::nl_basics::lemma_mul_is_associative")
(declare-fun ens%main!nl_basics.lemma_mul_is_associative. (Int Int Int) Bool)
(assert (forall ((x~2@ Int) (y~4@ Int) (z~6@ Int)) (! (= (ens%main!nl_basics.lemma_mul_is_associative. x~2@ y~4@ z~6@) (= (Mul x~2@ (Mul y~4@ z~6@)) (Mul (Mul x~2@ y~4@) z~6@))) :pattern ((ens%main!nl_basics.lemma_mul_is_associative. x~2@ y~4@ z~6@)) :qid internal_ens__main!nl_basics.lemma_mul_is_associative._definition :skolemid skolem_internal_ens__main!nl_basics.lemma_mul_is_associative._definition)))
(set-info :comment ";; Function-Specs main::nl_basics::lemma_mul_is_commutative")
(declare-fun ens%main!nl_basics.lemma_mul_is_commutative. (Int Int) Bool)
(assert (forall ((x~2@ Int) (y~4@ Int)) (! (= (ens%main!nl_basics.lemma_mul_is_commutative. x~2@ y~4@) (= (Mul x~2@ y~4@) (Mul y~4@ x~2@))) :pattern ((ens%main!nl_basics.lemma_mul_is_commutative. x~2@ y~4@)) :qid internal_ens__main!nl_basics.lemma_mul_is_commutative._definition :skolemid skolem_internal_ens__main!nl_basics.lemma_mul_is_commutative._definition)))
(set-info :comment ";; Function-Specs main::nl_basics::lemma_mul_is_distributive")
(declare-fun ens%main!nl_basics.lemma_mul_is_distributive. (Int Int Int) Bool)
(assert (forall ((x~2@ Int) (y~4@ Int) (z~6@ Int)) (! (= (ens%main!nl_basics.lemma_mul_is_distributive. x~2@ y~4@ z~6@) (and (= (Mul x~2@ (Add y~4@ z~6@)) (Add (Mul x~2@ y~4@) (Mul x~2@ z~6@))) (= (Mul (Add x~2@ y~4@) z~6@) (Add (Mul x~2@ z~6@) (Mul y~4@ z~6@))) (= (Mul x~2@ (Sub y~4@ z~6@)) (Sub (Mul x~2@ y~4@) (Mul x~2@ z~6@))) (= (Mul (Sub x~2@ y~4@) z~6@) (Sub (Mul x~2@ z~6@) (Mul y~4@ z~6@))))) :pattern ((ens%main!nl_basics.lemma_mul_is_distributive. x~2@ y~4@ z~6@)) :qid internal_ens__main!nl_basics.lemma_mul_is_distributive._definition :skolemid skolem_internal_ens__main!nl_basics.lemma_mul_is_distributive._definition)))
(set-info :comment ";; Function-Def main::inst_0")
(set-info :comment ";; mariposa_data/8//5233501277902642195/nlqi_verus/src/main.rs:7:1: 66:40 (#0)")
(push 1)
(declare-const a0~2@ Int)
(declare-const b0~4@ Int)
(declare-const c0~6@ Int)
(declare-const d0~8@ Int)
(declare-const a1~10@ Int)
(declare-const b1~12@ Int)
(declare-const c1~14@ Int)
(declare-const d1~16@ Int)
(declare-const a2~18@ Int)
(declare-const b2~20@ Int)
(declare-const c2~22@ Int)
(declare-const d2~24@ Int)
(declare-const a3~26@ Int)
(declare-const b3~28@ Int)
(declare-const c3~30@ Int)
(declare-const d3~32@ Int)
(declare-const a4~34@ Int)
(declare-const b4~36@ Int)
(declare-const c4~38@ Int)
(declare-const d4~40@ Int)
(declare-const a5~42@ Int)
(declare-const b5~44@ Int)
(declare-const c5~46@ Int)
(declare-const d5~48@ Int)
(declare-const a6~50@ Int)
(declare-const b6~52@ Int)
(declare-const c6~54@ Int)
(declare-const d6~56@ Int)
(declare-const a7~58@ Int)
(declare-const b7~60@ Int)
(declare-const c7~62@ Int)
(declare-const d7~64@ Int)
(declare-const a8~66@ Int)
(declare-const b8~68@ Int)
(declare-const c8~70@ Int)
(declare-const d8~72@ Int)
(declare-const a9~74@ Int)
(declare-const b9~76@ Int)
(declare-const c9~78@ Int)
(declare-const d9~80@ Int)
(declare-const a10~82@ Int)
(declare-const b10~84@ Int)
(declare-const c10~86@ Int)
(declare-const d10~88@ Int)
(declare-const a11~90@ Int)
(declare-const b11~92@ Int)
(declare-const c11~94@ Int)
(declare-const d11~96@ Int)
(declare-const a12~98@ Int)
(declare-const b12~100@ Int)
(declare-const c12~102@ Int)
(declare-const d12~104@ Int)
(declare-const a13~106@ Int)
(declare-const b13~108@ Int)
(declare-const c13~110@ Int)
(declare-const d13~112@ Int)
(declare-const a14~114@ Int)
(declare-const b14~116@ Int)
(declare-const c14~118@ Int)
(declare-const d14~120@ Int)
(declare-const a15~122@ Int)
(declare-const b15~124@ Int)
(declare-const c15~126@ Int)
(declare-const d15~128@ Int)
(declare-const a16~130@ Int)
(declare-const b16~132@ Int)
(declare-const c16~134@ Int)
(declare-const d16~136@ Int)
(declare-const a17~138@ Int)
(declare-const b17~140@ Int)
(declare-const c17~142@ Int)
(declare-const d17~144@ Int)
(declare-const a18~146@ Int)
(declare-const b18~148@ Int)
(declare-const c18~150@ Int)
(declare-const d18~152@ Int)
(declare-const a19~154@ Int)
(declare-const b19~156@ Int)
(declare-const c19~158@ Int)
(declare-const d19~160@ Int)
(declare-const a20~162@ Int)
(declare-const b20~164@ Int)
(declare-const c20~166@ Int)
(declare-const d20~168@ Int)
(declare-const a21~170@ Int)
(declare-const b21~172@ Int)
(declare-const c21~174@ Int)
(declare-const d21~176@ Int)
(declare-const a22~178@ Int)
(declare-const b22~180@ Int)
(declare-const c22~182@ Int)
(declare-const d22~184@ Int)
(declare-const a23~186@ Int)
(declare-const b23~188@ Int)
(declare-const c23~190@ Int)
(declare-const d23~192@ Int)
(declare-const a24~194@ Int)
(declare-const b24~196@ Int)
(declare-const c24~198@ Int)
(declare-const d24~200@ Int)
(declare-const a25~202@ Int)
(declare-const b25~204@ Int)
(declare-const c25~206@ Int)
(declare-const d25~208@ Int)
(declare-const a26~210@ Int)
(declare-const b26~212@ Int)
(declare-const c26~214@ Int)
(declare-const d26~216@ Int)
(declare-const a27~218@ Int)
(declare-const b27~220@ Int)
(declare-const c27~222@ Int)
(declare-const d27~224@ Int)
(declare-const a28~226@ Int)
(declare-const b28~228@ Int)
(declare-const c28~230@ Int)
(declare-const d28~232@ Int)
(declare-const a29~234@ Int)
(declare-const b29~236@ Int)
(declare-const c29~238@ Int)
(declare-const d29~240@ Int)
(declare-const a30~242@ Int)
(declare-const b30~244@ Int)
(declare-const c30~246@ Int)
(declare-const d30~248@ Int)
(declare-const a31~250@ Int)
(declare-const b31~252@ Int)
(declare-const c31~254@ Int)
(declare-const d31~256@ Int)
(declare-const a32~258@ Int)
(declare-const b32~260@ Int)
(declare-const c32~262@ Int)
(declare-const d32~264@ Int)
(declare-const a33~266@ Int)
(declare-const b33~268@ Int)
(declare-const c33~270@ Int)
(declare-const d33~272@ Int)
(declare-const a34~274@ Int)
(declare-const b34~276@ Int)
(declare-const c34~278@ Int)
(declare-const d34~280@ Int)
(declare-const a35~282@ Int)
(declare-const b35~284@ Int)
(declare-const c35~286@ Int)
(declare-const d35~288@ Int)
(declare-const a36~290@ Int)
(declare-const b36~292@ Int)
(declare-const c36~294@ Int)
(declare-const d36~296@ Int)
(declare-const a37~298@ Int)
(declare-const b37~300@ Int)
(declare-const c37~302@ Int)
(declare-const d37~304@ Int)
(declare-const a38~306@ Int)
(declare-const b38~308@ Int)
(declare-const c38~310@ Int)
(declare-const d38~312@ Int)
(declare-const a39~314@ Int)
(declare-const b39~316@ Int)
(declare-const c39~318@ Int)
(declare-const d39~320@ Int)
(declare-const a40~322@ Int)
(declare-const b40~324@ Int)
(declare-const c40~326@ Int)
(declare-const d40~328@ Int)
(declare-const a41~330@ Int)
(declare-const b41~332@ Int)
(declare-const c41~334@ Int)
(declare-const d41~336@ Int)
(declare-const a42~338@ Int)
(declare-const b42~340@ Int)
(declare-const c42~342@ Int)
(declare-const d42~344@ Int)
(declare-const a43~346@ Int)
(declare-const b43~348@ Int)
(declare-const c43~350@ Int)
(declare-const d43~352@ Int)
(declare-const a44~354@ Int)
(declare-const b44~356@ Int)
(declare-const c44~358@ Int)
(declare-const d44~360@ Int)
(declare-const a45~362@ Int)
(declare-const b45~364@ Int)
(declare-const c45~366@ Int)
(declare-const d45~368@ Int)
(declare-const a46~370@ Int)
(declare-const b46~372@ Int)
(declare-const c46~374@ Int)
(declare-const d46~376@ Int)
(declare-const a47~378@ Int)
(declare-const b47~380@ Int)
(declare-const c47~382@ Int)
(declare-const d47~384@ Int)
(declare-const a48~386@ Int)
(declare-const b48~388@ Int)
(declare-const c48~390@ Int)
(declare-const d48~392@ Int)
(declare-const a49~394@ Int)
(declare-const b49~396@ Int)
(declare-const c49~398@ Int)
(declare-const d49~400@ Int)
(declare-const a50~402@ Int)
(declare-const b50~404@ Int)
(declare-const c50~406@ Int)
(declare-const d50~408@ Int)
(declare-const a51~410@ Int)
(declare-const b51~412@ Int)
(declare-const c51~414@ Int)
(declare-const d51~416@ Int)
(declare-const a52~418@ Int)
(declare-const b52~420@ Int)
(declare-const c52~422@ Int)
(declare-const d52~424@ Int)
(declare-const a53~426@ Int)
(declare-const b53~428@ Int)
(declare-const c53~430@ Int)
(declare-const d53~432@ Int)
(declare-const a54~434@ Int)
(declare-const b54~436@ Int)
(declare-const c54~438@ Int)
(declare-const d54~440@ Int)
(declare-const a55~442@ Int)
(declare-const b55~444@ Int)
(declare-const c55~446@ Int)
(declare-const d55~448@ Int)
(declare-const a56~450@ Int)
(declare-const b56~452@ Int)
(declare-const c56~454@ Int)
(declare-const d56~456@ Int)
(declare-const a57~458@ Int)
(declare-const b57~460@ Int)
(declare-const c57~462@ Int)
(declare-const d57~464@ Int)
(declare-const a58~466@ Int)
(declare-const b58~468@ Int)
(declare-const c58~470@ Int)
(declare-const d58~472@ Int)
(declare-const a59~474@ Int)
(declare-const b59~476@ Int)
(declare-const c59~478@ Int)
(declare-const d59~480@ Int)
(declare-const tmp%1@ Int)
(declare-const tmp%2@ Int)
(declare-const tmp%3@ Int)
(declare-const tmp%4@ Int)
(declare-const tmp%5@ Int)
(declare-const tmp%6@ Int)
(declare-const tmp%7@ Int)
(declare-const temp_0_0~721@ Int)
(declare-const temp_0_1~978@ Int)
(declare-const temp_1_0~1845@ Int)
(declare-const temp_1_1~2662@ Int)
(declare-const temp_2_0~3431@ Int)
(declare-const temp_2_1~4156@ Int)
(assert fuel_defaults)
(set-info :comment ";; assertion failed")
(declare-const %%location_label%%0 Bool)
(set-info :comment ";; assertion failed")
(declare-const %%location_label%%1 Bool)
(set-info :comment ";; assertion failed")
(declare-const %%location_label%%2 Bool)
(declare-const %%query%% Bool)
(assert (=> %%query%% (not (=> (= temp_0_0~721@ (Mul (Mul (Mul (Sub (Mul (Add (Add (Mul a0~2@ b0~4@) (Mul b0~4@ c0~6@)) b0~4@) (Mul c0~6@ (Sub (Mul b0~4@ b0~4@) b0~4@))) (Mul (Mul (Mul (Mul a0~2@ d0~8@) (Mul d0~8@ d0~8@)) (Sub c0~6@ (Mul b0~4@ b0~4@))) (Mul (Mul (Mul a0~2@ d0~8@) (Sub b0~4@ b0~4@)) (Sub (Mul c0~6@ c0~6@) (Mul a0~2@ a0~2@))))) b0~4@) a0~2@) (Mul (Mul d0~8@ (Sub (Add (Mul (Mul c0~6@ (Mul d0~8@ c0~6@)) (Mul (Mul a0~2@ d0~8@) d0~8@)) (Mul (Mul (Mul c0~6@ c0~6@) (Add b0~4@ b0~4@)) (Mul (Mul a0~2@ b0~4@) (Mul d0~8@ d0~8@)))) (Mul (Mul (Mul (Mul a0~2@ c0~6@) b0~4@) (Mul (Mul d0~8@ c0~6@) (Sub c0~6@ c0~6@))) (Sub (Add (Mul c0~6@ d0~8@) (Mul b0~4@ a0~2@)) (Mul (Mul a0~2@ d0~8@) (Mul a0~2@ b0~4@)))))) 20))) (=> (= temp_0_1~978@ (Mul (Mul (Mul (Sub (Mul (Add (Add (Mul a0~2@ b0~4@) (Mul b0~4@ c0~6@)) b0~4@) (Mul c0~6@ (Sub (Mul b0~4@ b0~4@) b0~4@))) (Mul (Mul (Mul (Mul a0~2@ d0~8@) (Mul d0~8@ d0~8@)) (Sub c0~6@ (Mul b0~4@ b0~4@))) (Sub (Mul (Mul (Mul a0~2@ d0~8@) (Sub b0~4@ b0~4@)) (Mul c0~6@ c0~6@)) (Mul (Mul (Mul a0~2@ d0~8@) (Sub b0~4@ b0~4@)) (Mul a0~2@ a0~2@))))) b0~4@) a0~2@) (Mul (Mul d0~8@ (Sub (Add (Mul (Mul c0~6@ (Mul d0~8@ c0~6@)) (Mul (Mul a0~2@ d0~8@) d0~8@)) (Mul (Mul (Mul c0~6@ c0~6@) (Add b0~4@ b0~4@)) (Mul (Mul a0~2@ b0~4@) (Mul d0~8@ d0~8@)))) (Mul (Mul (Mul (Mul a0~2@ c0~6@) b0~4@) (Mul (Mul d0~8@ c0~6@) (Sub c0~6@ c0~6@))) (Sub (Add (Mul c0~6@ d0~8@) (Mul b0~4@ a0~2@)) (Mul (Mul a0~2@ d0~8@) (Mul a0~2@ b0~4@)))))) 20))) (and (=> (= tmp%1@ (Mul (Mul a0~2@ d0~8@) (Sub b0~4@ b0~4@))) (=> (= tmp%2@ (Mul c0~6@ c0~6@)) (=> (= tmp%3@ (Mul a0~2@ a0~2@)) (=> (ens%main!nl_basics.lemma_mul_is_distributive. tmp%1@ tmp%2@ tmp%3@) (=> %%location_label%%0 (= temp_0_0~721@ temp_0_1~978@)))))) (=> (= temp_0_0~721@ temp_0_1~978@) (=> (= temp_1_0~1845@ (Mul (Mul (Mul (Mul (Mul (Mul (Mul (Mul b1~12@ b1~12@) (Add a1~10@ b1~12@)) (Mul (Mul a1~10@ a1~10@) (Mul b1~12@ c1~14@))) (Mul (Mul d1~16@ (Mul a1~10@ d1~16@)) (Mul a1~10@ (Mul a1~10@ d1~16@)))) (Mul (Mul (Mul (Add a1~10@ b1~12@) (Sub c1~14@ c1~14@)) d1~16@) (Mul (Mul (Mul a1~10@ a1~10@) d1~16@) (Mul (Mul b1~12@ a1~10@) (Sub b1~12@ d1~16@))))) (Mul (Mul (Sub (Mul (Sub c1~14@ b1~12@) (Add a1~10@ c1~14@)) (Sub (Mul b1~12@ b1~12@) (Mul c1~14@ b1~12@))) (Mul (Mul (Mul c1~14@ d1~16@) (Mul c1~14@ b1~12@)) (Add (Mul c1~14@ c1~14@) (Mul a1~10@ b1~12@)))) (Sub (Mul (Mul (Mul c1~14@ b1~12@) (Mul c1~14@ a1~10@)) (Mul (Mul b1~12@ a1~10@) (Mul d1~16@ a1~10@))) (Mul (Mul (Mul c1~14@ c1~14@) c1~14@) (Mul (Mul d1~16@ a1~10@) (Mul b1~12@ b1~12@)))))) (Mul (Mul (Mul (Mul (Mul (Mul a1~10@ b1~12@) (Mul a1~10@ c1~14@)) b1~12@) (Mul (Mul (Mul d1~16@ a1~10@) (Mul b1~12@ a1~10@)) c1~14@)) (Add (Mul c1~14@ (Mul (Mul d1~16@ a1~10@) (Mul b1~12@ d1~16@))) (Sub (Mul (Mul d1~16@ a1~10@) (Mul a1~10@ c1~14@)) (Mul (Sub c1~14@ c1~14@) c1~14@)))) (Mul (Mul (Mul (Mul (Mul c1~14@ c1~14@) (Mul b1~12@ 33)) (Sub (Add c1~14@ a1~10@) d1~16@)) (Mul (Mul (Mul a1~10@ b1~12@) (Mul a1~10@ 14)) (Sub (Mul b1~12@ c1~14@) (Mul b1~12@ d1~16@)))) a1~10@))) (Mul (Mul (Mul (Mul 23 (Mul d1~16@ (Mul c1~14@ (Mul d1~16@ c1~14@)))) (Mul (Mul (Sub c1~14@ (Mul b1~12@ d1~16@)) (Add (Mul a1~10@ d1~16@) b1~12@)) (Mul (Mul (Mul a1~10@ c1~14@) (Mul d1~16@ d1~16@)) (Mul (Mul b1~12@ d1~16@) (Mul a1~10@ 80))))) (Mul (Mul (Mul (Sub (Mul b1~12@ b1~12@) (Mul c1~14@ d1~16@)) (Mul b1~12@ (Mul c1~14@ c1~14@))) (Mul (Mul (Sub b1~12@ d1~16@) (Mul a1~10@ b1~12@)) (Mul (Mul b1~12@ c1~14@) (Mul c1~14@ b1~12@)))) (Mul (Mul (Mul (Mul b1~12@ d1~16@) b1~12@) (Sub (Mul c1~14@ d1~16@) (Mul d1~16@ c1~14@))) (Mul (Mul (Sub a1~10@ b1~12@) (Mul b1~12@ d1~16@)) (Mul (Mul a1~10@ a1~10@) (Mul b1~12@ d1~16@)))))) (Mul (Mul (Mul (Mul (Mul b1~12@ (Mul c1~14@ d1~16@)) (Add c1~14@ (Mul d1~16@ b1~12@))) (Mul (Mul (Mul b1~12@ b1~12@) (Mul a1~10@ a1~10@)) (Mul (Sub a1~10@ b1~12@) (Mul a1~10@ b1~12@)))) (Mul (Mul (Mul (Mul b1~12@ b1~12@) (Mul b1~12@ 89)) (Mul (Mul d1~16@ d1~16@) b1~12@)) (Mul a1~10@ (Add c1~14@ (Mul a1~10@ a1~10@))))) (Mul (Sub (Add (Sub (Mul d1~16@ b1~12@) (Mul a1~10@ b1~12@)) (Mul c1~14@ (Add d1~16@ d1~16@))) (Sub c1~14@ d1~16@)) (Add 73 (Mul (Mul (Mul b1~12@ a1~10@) b1~12@) (Sub (Mul b1~12@ c1~14@) (Mul a1~10@ c1~14@))))))))) (=> (= temp_1_1~2662@ (Mul (Mul (Mul (Mul (Mul (Mul (Mul (Mul b1~12@ b1~12@) (Add a1~10@ b1~12@)) (Mul (Mul a1~10@ a1~10@) (Mul b1~12@ c1~14@))) (Mul (Mul d1~16@ (Mul a1~10@ d1~16@)) (Mul a1~10@ (Mul a1~10@ d1~16@)))) (Mul (Mul (Mul (Add a1~10@ b1~12@) (Sub c1~14@ c1~14@)) d1~16@) (Mul (Mul (Mul a1~10@ a1~10@) d1~16@) (Mul (Mul b1~12@ a1~10@) (Sub b1~12@ d1~16@))))) (Mul (Mul (Sub (Mul (Sub c1~14@ b1~12@) (Add a1~10@ c1~14@)) (Sub (Mul b1~12@ b1~12@) (Mul c1~14@ b1~12@))) (Mul (Mul (Mul c1~14@ d1~16@) (Mul c1~14@ b1~12@)) (Add (Mul c1~14@ c1~14@) (Mul a1~10@ b1~12@)))) (Sub (Mul (Mul (Mul c1~14@ b1~12@) (Mul c1~14@ a1~10@)) (Mul (Mul b1~12@ a1~10@) (Mul d1~16@ a1~10@))) (Mul (Mul (Mul c1~14@ c1~14@) c1~14@) (Mul (Mul d1~16@ a1~10@) (Mul b1~12@ b1~12@)))))) (Mul (Mul (Mul (Mul (Mul (Mul a1~10@ b1~12@) (Mul a1~10@ c1~14@)) b1~12@) (Mul (Mul (Mul d1~16@ a1~10@) (Mul b1~12@ a1~10@)) c1~14@)) (Add (Mul c1~14@ (Mul (Mul d1~16@ a1~10@) (Mul b1~12@ d1~16@))) (Sub (Mul (Mul d1~16@ a1~10@) (Mul a1~10@ c1~14@)) (Mul (Sub c1~14@ c1~14@) c1~14@)))) (Mul (Mul (Mul (Mul (Mul c1~14@ c1~14@) (Mul b1~12@ 33)) (Sub (Add c1~14@ a1~10@) d1~16@)) (Mul (Mul (Mul a1~10@ b1~12@) (Mul a1~10@ 14)) (Sub (Mul b1~12@ c1~14@) (Mul b1~12@ d1~16@)))) a1~10@))) (Mul (Mul (Mul (Mul 23 (Mul d1~16@ (Mul c1~14@ (Mul d1~16@ c1~14@)))) (Mul (Mul (Add (Mul a1~10@ d1~16@) b1~12@) (Sub c1~14@ (Mul b1~12@ d1~16@))) (Mul (Mul (Mul a1~10@ c1~14@) (Mul d1~16@ d1~16@)) (Mul (Mul b1~12@ d1~16@) (Mul a1~10@ 80))))) (Mul (Mul (Mul (Sub (Mul b1~12@ b1~12@) (Mul c1~14@ d1~16@)) (Mul b1~12@ (Mul c1~14@ c1~14@))) (Mul (Mul (Sub b1~12@ d1~16@) (Mul a1~10@ b1~12@)) (Mul (Mul b1~12@ c1~14@) (Mul c1~14@ b1~12@)))) (Mul (Mul (Mul (Mul b1~12@ d1~16@) b1~12@) (Sub (Mul c1~14@ d1~16@) (Mul d1~16@ c1~14@))) (Mul (Mul (Sub a1~10@ b1~12@) (Mul b1~12@ d1~16@)) (Mul (Mul a1~10@ a1~10@) (Mul b1~12@ d1~16@)))))) (Mul (Mul (Mul (Mul (Mul b1~12@ (Mul c1~14@ d1~16@)) (Add c1~14@ (Mul d1~16@ b1~12@))) (Mul (Mul (Mul b1~12@ b1~12@) (Mul a1~10@ a1~10@)) (Mul (Sub a1~10@ b1~12@) (Mul a1~10@ b1~12@)))) (Mul (Mul (Mul (Mul b1~12@ b1~12@) (Mul b1~12@ 89)) (Mul (Mul d1~16@ d1~16@) b1~12@)) (Mul a1~10@ (Add c1~14@ (Mul a1~10@ a1~10@))))) (Mul (Sub (Add (Sub (Mul d1~16@ b1~12@) (Mul a1~10@ b1~12@)) (Mul c1~14@ (Add d1~16@ d1~16@))) (Sub c1~14@ d1~16@)) (Add 73 (Mul (Mul (Mul b1~12@ a1~10@) b1~12@) (Sub (Mul b1~12@ c1~14@) (Mul a1~10@ c1~14@))))))))) (and (=> (= tmp%4@ (Sub c1~14@ (Mul b1~12@ d1~16@))) (=> (= tmp%5@ (Add (Mul a1~10@ d1~16@) b1~12@)) (=> (ens%main!nl_basics.lemma_mul_is_commutative. tmp%4@ tmp%5@) (=> %%location_label%%1 (= temp_1_0~1845@ temp_1_1~2662@))))) (=> (= temp_1_0~1845@ temp_1_1~2662@) (=> (= temp_2_0~3431@ (Mul (Mul (Mul (Mul (Mul (Add (Mul (Mul c2~22@ b2~20@) (Mul a2~18@ d2~24@)) (Mul (Mul b2~20@ c2~22@) b2~20@)) (Mul (Mul (Mul d2~24@ c2~22@) (Mul b2~20@ c2~22@)) (Mul (Mul b2~20@ d2~24@) (Mul c2~22@ d2~24@)))) (Mul (Mul (Mul (Mul b2~20@ 73) (Sub a2~18@ c2~22@)) b2~20@) (Sub (Add (Add b2~20@ d2~24@) (Sub a2~18@ d2~24@)) (Mul (Add a2~18@ c2~22@) (Add c2~22@ a2~18@))))) (Mul (Mul (Mul (Mul (Mul c2~22@ d2~24@) (Mul c2~22@ b2~20@)) (Mul (Mul b2~20@ a2~18@) (Mul b2~20@ d2~24@))) (Mul (Sub (Mul b2~20@ a2~18@) (Mul c2~22@ a2~18@)) a2~18@)) (Mul c2~22@ (Mul (Mul (Mul a2~18@ 27) (Mul c2~22@ a2~18@)) (Mul (Mul d2~24@ a2~18@) (Add d2~24@ b2~20@)))))) (Mul (Mul (Mul (Add (Mul (Mul a2~18@ d2~24@) (Mul a2~18@ a2~18@)) (Mul (Mul b2~20@ d2~24@) (Add d2~24@ a2~18@))) (Mul (Sub (Mul a2~18@ b2~20@) (Mul d2~24@ b2~20@)) a2~18@)) (Sub (Sub (Mul (Sub c2~22@ a2~18@) a2~18@) (Sub d2~24@ (Mul a2~18@ c2~22@))) (Mul (Mul (Mul c2~22@ d2~24@) (Sub b2~20@ a2~18@)) b2~20@))) (Mul (Sub (Mul (Mul (Sub a2~18@ a2~18@) (Mul a2~18@ a2~18@)) b2~20@) (Mul c2~22@ (Sub c2~22@ (Mul a2~18@ b2~20@)))) (Sub (Mul (Sub (Mul a2~18@ d2~24@) (Mul c2~22@ d2~24@)) (Mul a2~18@ (Sub b2~20@ d2~24@))) d2~24@)))) (Mul (Add (Mul c2~22@ (Mul (Mul b2~20@ (Mul (Mul c2~22@ d2~24@) (Mul a2~18@ b2~20@))) (Mul (Mul (Mul b2~20@ a2~18@) (Mul b2~20@ d2~24@)) (Mul (Mul a2~18@ d2~24@) (Sub d2~24@ c2~22@))))) (Mul (Mul (Mul (Mul d2~24@ (Mul b2~20@ d2~24@)) (Mul (Mul d2~24@ a2~18@) d2~24@)) b2~20@) (Mul (Mul (Add (Mul 19 d2~24@) (Mul d2~24@ c2~22@)) (Add (Add d2~24@ b2~20@) (Add c2~22@ a2~18@))) (Mul (Mul (Mul a2~18@ d2~24@) (Mul a2~18@ a2~18@)) (Sub (Mul c2~22@ d2~24@) (Mul 11 d2~24@)))))) (Mul (Mul (Sub (Mul (Mul (Mul a2~18@ c2~22@) (Mul c2~22@ c2~22@)) (Mul (Add b2~20@ d2~24@) (Mul d2~24@ b2~20@))) a2~18@) (Mul (Mul (Sub (Mul b2~20@ d2~24@) (Sub c2~22@ d2~24@)) (Mul (Mul d2~24@ c2~22@) (Mul a2~18@ c2~22@))) (Sub (Mul (Add d2~24@ c2~22@) (Mul b2~20@ b2~20@)) (Mul (Mul 49 b2~20@) a2~18@)))) (Sub b2~20@ (Sub (Add (Mul (Mul a2~18@ a2~18@) (Mul a2~18@ b2~20@)) (Mul (Mul c2~22@ c2~22@) (Sub c2~22@ c2~22@))) (Mul c2~22@ (Mul (Mul d2~24@ b2~20@) (Mul c2~22@ b2~20@))))))))) (=> (= temp_2_1~4156@ (Mul (Mul (Mul (Mul (Mul (Add (Mul (Mul c2~22@ b2~20@) (Mul a2~18@ d2~24@)) (Mul (Mul b2~20@ c2~22@) b2~20@)) (Mul (Mul (Mul d2~24@ c2~22@) (Mul b2~20@ c2~22@)) (Mul (Mul b2~20@ d2~24@) (Mul c2~22@ d2~24@)))) (Mul (Mul (Mul (Mul b2~20@ 73) (Sub a2~18@ c2~22@)) b2~20@) (Sub (Add (Add b2~20@ d2~24@) (Sub a2~18@ d2~24@)) (Mul (Add a2~18@ c2~22@) (Add c2~22@ a2~18@))))) (Mul (Mul (Mul (Mul (Mul c2~22@ d2~24@) (Mul c2~22@ b2~20@)) (Mul (Mul b2~20@ a2~18@) (Mul b2~20@ d2~24@))) (Mul (Sub (Mul b2~20@ a2~18@) (Mul c2~22@ a2~18@)) a2~18@)) (Mul c2~22@ (Mul (Mul (Mul a2~18@ 27) (Mul c2~22@ a2~18@)) (Mul (Mul d2~24@ a2~18@) (Add d2~24@ b2~20@)))))) (Mul (Mul (Mul (Add (Mul (Mul a2~18@ d2~24@) (Mul a2~18@ a2~18@)) (Mul (Mul b2~20@ d2~24@) (Add d2~24@ a2~18@))) (Mul (Sub (Mul a2~18@ b2~20@) (Mul d2~24@ b2~20@)) a2~18@)) (Sub (Sub (Mul (Sub c2~22@ a2~18@) a2~18@) (Sub d2~24@ (Mul a2~18@ c2~22@))) (Mul (Mul (Mul c2~22@ d2~24@) (Sub b2~20@ a2~18@)) b2~20@))) (Mul (Sub (Mul (Mul (Sub a2~18@ a2~18@) (Mul a2~18@ a2~18@)) b2~20@) (Mul c2~22@ (Sub c2~22@ (Mul a2~18@ b2~20@)))) (Sub (Mul (Sub (Mul a2~18@ d2~24@) (Mul c2~22@ d2~24@)) (Mul a2~18@ (Sub b2~20@ d2~24@))) d2~24@)))) (Mul (Add (Mul c2~22@ (Mul (Mul b2~20@ (Mul (Mul c2~22@ d2~24@) (Mul a2~18@ b2~20@))) (Mul (Mul (Mul b2~20@ a2~18@) (Mul b2~20@ d2~24@)) (Mul (Mul a2~18@ d2~24@) (Sub d2~24@ c2~22@))))) (Mul (Mul (Mul d2~24@ (Mul b2~20@ d2~24@)) (Mul (Mul (Mul d2~24@ a2~18@) d2~24@) b2~20@)) (Mul (Mul (Add (Mul 19 d2~24@) (Mul d2~24@ c2~22@)) (Add (Add d2~24@ b2~20@) (Add c2~22@ a2~18@))) (Mul (Mul (Mul a2~18@ d2~24@) (Mul a2~18@ a2~18@)) (Sub (Mul c2~22@ d2~24@) (Mul 11 d2~24@)))))) (Mul (Mul (Sub (Mul (Mul (Mul a2~18@ c2~22@) (Mul c2~22@ c2~22@)) (Mul (Add b2~20@ d2~24@) (Mul d2~24@ b2~20@))) a2~18@) (Mul (Mul (Sub (Mul b2~20@ d2~24@) (Sub c2~22@ d2~24@)) (Mul (Mul d2~24@ c2~22@) (Mul a2~18@ c2~22@))) (Sub (Mul (Add d2~24@ c2~22@) (Mul b2~20@ b2~20@)) (Mul (Mul 49 b2~20@) a2~18@)))) (Sub b2~20@ (Sub (Add (Mul (Mul a2~18@ a2~18@) (Mul a2~18@ b2~20@)) (Mul (Mul c2~22@ c2~22@) (Sub c2~22@ c2~22@))) (Mul c2~22@ (Mul (Mul d2~24@ b2~20@) (Mul c2~22@ b2~20@))))))))) (=> (= tmp%6@ (Mul d2~24@ (Mul b2~20@ d2~24@))) (=> (= tmp%7@ (Mul (Mul d2~24@ a2~18@) d2~24@)) (=> (ens%main!nl_basics.lemma_mul_is_associative. tmp%6@ tmp%7@ b2~20@) (=> %%location_label%%2 (= temp_2_0~3431@ temp_2_1~4156@))))))))))))))))))
(assert %%query%%)
(check-sat)
